units lj
atom_style atomic

read_data d6.0.atoms

mass 1 1.0

reset_timestep  0
timestep        0.0001

pair_style lj/cut 1.12246
pair_modify shift yes
pair_coeff 1 1 1.0 1.0 1.12246

fix 1 all nvt temp 1.0 1.0 0.01

thermo 10
dump		id all atom 50 initial_dump.melt

run 20000