units lj
atom_style atomic

read_data d0.5.atoms

mass 1 1.0

reset_timestep  0
timestep        0.0001

pair_style lj/cut 1.12246
pair_modify shift yes
pair_coeff 1 1 1.0 1.0 1.12246

fix 1 all nvt temp 1.0 1.0 0.01

dump		id all atom 100 low_dump.melt

run 20000