units lj
atom_style atomic

read_data atoms/d8.79.atoms

mass 1 1.0

reset_timestep  0
timestep        0.0001

pair_style lj/cut 1.12246
pair_modify shift yes
pair_coeff 1 1 1.0 1.0 1.12246

fix 1 all nvt temp 1.0 1.0 0.01

thermo 10
thermo_style custom time temp press

run 20000